\ Model spread_copy
\ LP format - for model browsing. Use MPS format to capture full model detail.
Minimize
 
Subject To
 biohist2[618]: c_8[618,1] = 0
 biohist2[618]: c_8[618,1] = 1
Bounds
Binaries
 c_8[618,1]
End
